Optimal - objective value 56.00000000
     11 x(N0,E,1)                                     1                       1
     16 x(N0,E,7)                                     1                       1
     75 x(N1,L,4)                                     1                       1
     81 x(N1,L,17)                                    1                       1
     97 x(N2,E,4)                                     1                       1
    121 x(N2,L,14)                                    1                       1
    126 x(N2,L,22)                                    1                       1
    150 x(N3,E,25)                                    1                       1
    173 x(N4,N,4)                                     1                       1
    175 x(N4,N,7)                                     1                       1
    227 x(N5,E,7)                                     1                       1
    232 x(N5,E,22)                                    1                       1
    241 x(N5,D,17)                                    1                       1
    242 x(N5,D,20)                                    1                       1
    260 x(N6,N,10)                                    1                       1
    272 x(N6,E,17)                                    1                       1
    284 x(N6,D,18)                                    1                       1
    303 x(N7,N,16)                                    1                       1
    314 x(N7,E,18)                                    1                       1
    408 x(N9,D,2)                                     1                       1
    414 x(N9,D,21)                                    1                       1
    417 x(N9,D,27)                                    1                       1
   2727 ww(N5,15,18)                                  1                       1
   5704 vna_Max(N1)                                   3                       1
   5705 vna_Max(N2)                                   2                       1
   5708 vna_Max(N5)                                   3                       1
   5709 vna_Max(N6)                                   8                       1
   5710 vna_Max(N7)                                   5                       1
   5711 vna_Max(N8)                                   3                       1
   5712 vna_Max(N9)                                   6                       1
   6458 vpid(N1,4)                                    1                       1
   6461 vpid(N1,7)                                    1                       1
   6521 vpid(N6,7)                                    1                       1
   6564 x(N3,N,1)                                     1                       0
   6575 x(N9,E,1)                                     1                       0
   6582 x(N8,D,1)                                     1                       0
   6584 x(N1,L,1)                                     1                       0
   6587 x(N5,L,1)                                     1                       0
   6597 x(N8,N,2)                                     1                       0
   6601 x(N5,E,2)                                     1                       0
   6610 x(N1,L,2)                                     1                       0
   6623 x(N8,N,3)                                     1                       0
   6629 x(N5,E,3)                                     1                       0
   6641 x(N9,D,3)                                     1                       0
   6643 x(N1,L,3)                                     1                       0
   6656 x(N7,E,4)                                     1                       0
   6657 x(N3,D,4)                                     1                       0
   6661 x(N6,L,4)                                     1                       0
   6663 x(N1,N,5)                                     1                       0
   6672 x(N2,E,5)                                     1                       0
   6673 x(N3,E,5)                                     1                       0
   6683 x(N7,D,5)                                     1                       0
   6688 x(N4,L,5)                                     1                       0
   6690 x(N6,L,5)                                     1                       0
   6695 x(N3,N,6)                                     1                       0
   6701 x(N2,E,6)                                     1                       0
   6703 x(N5,E,6)                                     1                       0
   6712 x(N7,D,6)                                     1                       0
   6714 x(N0,L,6)                                     1                       0
   6718 x(N6,L,6)                                     1                       0
   6727 x(N2,D,7)                                     1                       0
   6731 x(N3,L,7)                                     1                       0
   6732 x(N9,L,7)                                     1                       0
   6734 x(N4,N,8)                                     1                       0
   6742 x(N6,E,8)                                     1                       0
   6743 x(N7,E,8)                                     1                       0
   6747 x(N5,D,8)                                     1                       0
   6751 x(N3,L,8)                                     1                       0
   6756 x(N9,L,8)                                     1                       0
   6759 x(N6,N,9)                                     1                       0
   6767 x(N9,E,9)                                     1                       0
   6772 x(N7,D,9)                                     1                       0
   6775 x(N1,L,9)                                     1                       0
   6790 x(N9,E,10)                                    1                       0
   6795 x(N7,D,10)                                    1                       0
   6798 x(N1,L,10)                                    1                       0
   6808 x(N7,N,11)                                    1                       0
   6811 x(N0,E,11)                                    1                       0
   6812 x(N2,E,11)                                    1                       0
   6820 x(N3,D,11)                                    1                       0
   6831 x(N5,L,11)                                    1                       0
   6834 x(N8,L,11)                                    1                       0
   6837 x(N2,N,12)                                    1                       0
   6843 x(N0,E,12)                                    1                       0
   6849 x(N6,E,12)                                    1                       0
   6853 x(N1,D,12)                                    1                       0
   6866 x(N5,L,12)                                    1                       0
   6868 x(N8,L,12)                                    1                       0
   6877 x(N8,N,13)                                    1                       0
   6879 x(N0,E,13)                                    1                       0
   6882 x(N4,E,13)                                    1                       0
   6893 x(N6,D,13)                                    1                       0
   6896 x(N1,L,13)                                    1                       0
   6897 x(N2,L,13)                                    1                       0
   6907 x(N9,N,14)                                    1                       0
   6908 x(N0,E,14)                                    1                       0
   6909 x(N1,E,14)                                    1                       0
   6915 x(N4,D,14)                                    1                       0
   6920 x(N6,L,14)                                    1                       0
   6924 x(N4,N,15)                                    1                       0
   6928 x(N2,E,15)                                    1                       0
   6931 x(N5,E,15)                                    1                       0
   6938 x(N7,D,15)                                    1                       0
   6941 x(N3,L,15)                                    1                       0
   6945 x(N9,L,15)                                    1                       0
   6954 x(N6,E,16)                                    1                       0
   6958 x(N5,D,16)                                    1                       0
   6961 x(N1,L,16)                                    1                       0
   6967 x(N7,N,17)                                    1                       0
   6980 x(N8,N,18)                                    1                       0
   6983 x(N2,E,18)                                    1                       0
   6992 x(N0,L,18)                                    1                       0
   6994 x(N5,L,18)                                    1                       0
   6998 x(N2,N,19)                                    1                       0
   7003 x(N0,E,19)                                    1                       0
   7006 x(N3,E,19)                                    1                       0
   7015 x(N8,D,19)                                    1                       0
   7017 x(N1,L,19)                                    1                       0
   7020 x(N4,L,19)                                    1                       0
   7026 x(N8,N,20)                                    1                       0
   7029 x(N4,E,20)                                    1                       0
   7032 x(N9,E,20)                                    1                       0
   7038 x(N0,L,20)                                    1                       0
   7040 x(N7,L,20)                                    1                       0
   7044 x(N1,N,21)                                    1                       0
   7049 x(N0,E,21)                                    1                       0
   7054 x(N8,E,21)                                    1                       0
   7063 x(N5,L,21)                                    1                       0
   7065 x(N7,L,21)                                    1                       0
   7068 x(N1,N,22)                                    1                       0
   7072 x(N0,E,22)                                    1                       0
   7078 x(N3,D,22)                                    1                       0
   7085 x(N6,L,22)                                    1                       0
   7087 x(N2,N,23)                                    1                       0
   7094 x(N0,E,23)                                    1                       0
   7103 x(N3,D,23)                                    1                       0
   7113 x(N6,L,23)                                    1                       0
   7119 x(N2,N,24)                                    1                       0
   7125 x(N0,E,24)                                    1                       0
   7136 x(N3,D,24)                                    1                       0
   7145 x(N6,L,24)                                    1                       0
   7151 x(N6,N,25)                                    1                       0
   7154 x(N1,E,25)                                    1                       0
   7164 x(N9,D,25)                                    1                       0
   7166 x(N2,L,25)                                    1                       0
   7167 x(N4,L,25)                                    1                       0
   7178 x(N9,N,26)                                    1                       0
   7181 x(N2,E,26)                                    1                       0
   7182 x(N3,E,26)                                    1                       0
   7189 x(N1,D,26)                                    1                       0
   7197 x(N0,L,26)                                    1                       0
   7201 x(N4,L,26)                                    1                       0
   7206 x(N1,N,27)                                    1                       0
   7212 x(N2,E,27)                                    1                       0
   7214 x(N4,E,27)                                    1                       0
   7220 x(N3,L,27)                                    1                       0
   7222 x(N8,L,27)                                    1                       0
   7229 x(N9,N,28)                                    1                       0
   7232 x(N2,E,28)                                    1                       0
   7233 x(N3,E,28)                                    1                       0
   7239 x(N1,D,28)                                    1                       0
   7246 x(N0,L,28)                                    1                       0
   7252 x(N8,L,28)                                    1                       0
   7267 y(N0,4)                                       1                       0
   7268 y(N1,1)                                       1                       0
   7269 y(N1,2)                                       1                       0
   7270 y(N1,3)                                       1                       0
   7275 y(N2,4)                                       1                       0
   7279 y(N3,4)                                       1                       0
   7284 y(N5,1)                                       1                       0
   7286 y(N5,3)                                       1                       0
   7289 y(N6,2)                                       1                       0
   7290 y(N6,3)                                       1                       0
   7291 y(N6,4)                                       1                       0
   7293 y(N7,2)                                       1                       0
   7294 y(N7,3)                                       1                       0
   7296 y(N8,1)                                       1                       0
   7300 y(N9,1)                                       1                       0
   7301 y(N9,2)                                       1                       0
   7304 ww(N0,1,1)                                    1                       0
   7329 ww(N0,6,7)                                    1                       0
   7355 ww(N0,11,14)                                  1                       0
   7393 ww(N0,18,24)                                  1                       0
   7427 ww(N0,26,26)                                  1                       0
   7432 ww(N0,28,28)                                  1                       0
   7436 ww(N1,1,5)                                    1                       0
   7475 ww(N1,9,10)                                   1                       0
   7489 ww(N1,12,14)                                  1                       0
   7511 ww(N1,16,17)                                  1                       0
   7523 ww(N1,19,19)                                  1                       0
   7536 ww(N1,21,22)                                  1                       0
   7555 ww(N1,25,28)                                  1                       0
   7577 ww(N2,4,7)                                    1                       0
   7614 ww(N2,11,15)                                  1                       0
   7647 ww(N2,18,19)                                  1                       0
   7675 ww(N2,22,28)                                  1                       0
   7691 ww(N3,1,1)                                    1                       0
   7707 ww(N3,4,8)                                    1                       0
   7739 ww(N3,11,11)                                  1                       0
   7763 ww(N3,15,15)                                  1                       0
   7781 ww(N3,19,19)                                  1                       0
   7804 ww(N3,22,28)                                  1                       0
   7823 ww(N4,4,5)                                    1                       0
   7829 ww(N4,7,8)                                    1                       0
   7838 ww(N4,13,15)                                  1                       0
   7845 ww(N4,19,20)                                  1                       0
   7854 ww(N4,25,27)                                  1                       0
   7858 ww(N5,1,3)                                    1                       0
   7866 ww(N5,6,8)                                    1                       0
   7871 ww(N5,11,12)                                  1                       0
   7886 ww(N5,20,22)                                  1                       0
   7902 ww(N6,4,6)                                    1                       0
   7911 ww(N6,8,10)                                   1                       0
   7920 ww(N6,12,14)                                  1                       0
   7929 ww(N6,16,18)                                  1                       0
   7942 ww(N6,22,25)                                  1                       0
   7958 ww(N7,4,6)                                    1                       0
   7968 ww(N7,8,11)                                   1                       0
   7983 ww(N7,15,18)                                  1                       0
   7993 ww(N7,20,21)                                  1                       0
   8008 ww(N8,1,3)                                    1                       0
   8029 ww(N8,11,13)                                  1                       0
   8045 ww(N8,18,21)                                  1                       0
   8063 ww(N8,27,28)                                  1                       0
   8064 ww(N9,1,3)                                    1                       0
   8078 ww(N9,7,10)                                   1                       0
   8092 ww(N9,14,15)                                  1                       0
   8105 ww(N9,20,21)                                  1                       0
   8116 ww(N9,25,28)                                  1                       0
   8130 rw(N0,2,5)                                    1                       0
   8171 rw(N0,8,10)                                   1                       0
   8220 rw(N0,15,17)                                  1                       0
   8285 rw(N0,25,25)                                  1                       0
   8292 rw(N0,27,27)                                  1                       0
   8332 rw(N1,6,8)                                    1                       0
   8365 rw(N1,11,11)                                  1                       0
   8393 rw(N1,15,15)                                  1                       0
   8414 rw(N1,18,18)                                  1                       0
   8428 rw(N1,20,20)                                  1                       0
   8450 rw(N1,23,24)                                  1                       0
   8472 rw(N2,1,3)                                    1                       0
   8521 rw(N2,8,10)                                   1                       0
   8576 rw(N2,16,17)                                  1                       0
   8604 rw(N2,20,21)                                  1                       0
   8653 rw(N3,2,3)                                    1                       0
   8702 rw(N3,9,10)                                   1                       0
   8724 rw(N3,12,14)                                  1                       0
   8752 rw(N3,16,18)                                  1                       0
   8779 rw(N3,20,21)                                  1                       0
   8822 rw(N4,1,3)                                    1                       0
   8855 rw(N4,6,6)                                    1                       0
   8879 rw(N4,9,12)                                   1                       0
   8927 rw(N4,16,18)                                  1                       0
   8963 rw(N4,21,24)                                  1                       0
   8994 rw(N4,28,28)                                  1                       0
   9017 rw(N5,4,5)                                    1                       0
   9052 rw(N5,9,10)                                   1                       0
   9080 rw(N5,13,14)                                  1                       0
   9121 rw(N5,19,19)                                  1                       0
   9154 rw(N5,23,28)                                  1                       0
   9172 rw(N6,1,3)                                    1                       0
   9212 rw(N6,7,7)                                    1                       0
   9240 rw(N6,11,11)                                  1                       0
   9268 rw(N6,15,15)                                  1                       0
   9298 rw(N6,19,21)                                  1                       0
   9341 rw(N6,26,28)                                  1                       0
   9347 rw(N7,1,3)                                    1                       0
   9387 rw(N7,7,7)                                    1                       0
   9424 rw(N7,12,14)                                  1                       0
   9471 rw(N7,19,19)                                  1                       0
   9498 rw(N7,22,28)                                  1                       0
   9578 rw(N8,4,10)                                   1                       0
   9745 rw(N8,14,17)                                  1                       0
   9822 rw(N8,22,26)                                  1                       0
   9889 rw(N9,4,6)                                    1                       0
  10014 rw(N9,11,13)                                  1                       0
  10085 rw(N9,16,19)                                  1                       0
  10135 rw(N9,22,24)                                  1                       0
  10159 z(N0,4,4)                                     1                       0
  10162 z(N1,1,3)                                     1                       0
  10179 z(N2,4,4)                                     1                       0
  10189 z(N3,4,4)                                     1                       0
  10200 z(N5,1,1)                                     1                       0
  10207 z(N5,3,3)                                     1                       0
  10216 z(N6,2,4)                                     1                       0
  10225 z(N7,2,3)                                     1                       0
  10230 z(N8,1,1)                                     1                       0
  10241 z(N9,1,2)                                     1                       0
